(set-logic ALL)
(declare-const n_VAR String)
(assert (< 13 (- (str.len n_VAR) 13)))
(assert (> (str.len n_VAR) 13))
(assert (str.in.re (ite (str.prefixof "-" (str.at n_VAR 13)) (str.substr (str.at n_VAR 13) 1 (str.len (str.at n_VAR 13))) (str.at n_VAR 13)) (re.+ (re.range "0" "9"))))
(assert (> (str.len (str.substr n_VAR 0 (- 13 0))) 0))
(assert (str.in.re (ite (str.prefixof "-" (str.at (str.substr n_VAR 0 (- 13 0)) 0)) (str.substr (str.at (str.substr n_VAR 0 (- 13 0)) 0) 1 (str.len (str.at (str.substr n_VAR 0 (- 13 0)) 0))) (str.at (str.substr n_VAR 0 (- 13 0)) 0)) (re.+ (re.range "0" "9"))))
(assert (>= (ite (str.prefixof "-" (str.at n_VAR 13)) (- (str.to.int (str.substr (str.at n_VAR 13) 1 (str.len (str.at n_VAR 13))))) (str.to.int (str.at n_VAR 13))) (ite (str.prefixof "-" (str.at (str.substr n_VAR 0 (- 13 0)) 0)) (- (str.to.int (str.substr (str.at (str.substr n_VAR 0 (- 13 0)) 0) 1 (str.len (str.at (str.substr n_VAR 0 (- 13 0)) 0))))) (str.to.int (str.at (str.substr n_VAR 0 (- 13 0)) 0)))))
(assert (not (< (str.len (str.substr n_VAR 0 (- 13 0))) 0)))
(assert (> (str.len n_VAR) 13))
(assert (< 14 (- (str.len n_VAR) 13)))
(check-sat)
(get-value (n_VAR))
